
******************************************************************************
This program contains Ipopt, a library for large-scale nonlinear optimization.
 Ipopt is released as open source code under the Eclipse Public License (EPL).
         For more information visit http://projects.coin-or.org/Ipopt
******************************************************************************

This is Ipopt version 3.12.6, running with linear solver ma57.

Number of nonzeros in equality constraint Jacobian...:        0
Number of nonzeros in inequality constraint Jacobian.:        0
Number of nonzeros in Lagrangian Hessian.............:        3

Total number of variables............................:        2
                     variables with only lower bounds:        0
                variables with lower and upper bounds:        0
                     variables with only upper bounds:        0
Total number of equality constraints.................:        0
Total number of inequality constraints...............:        0
        inequality constraints with only lower bounds:        0
   inequality constraints with lower and upper bounds:        0
        inequality constraints with only upper bounds:        0

iter    objective    inf_pr   inf_du lg(mu)  ||d||  lg(rg) alpha_du alpha_pr  ls
   0  7.0084681e+02 0.00e+00 1.00e+02  -1.0 0.00e+00    -  0.00e+00 0.00e+00   0
   1  6.9968902e+02 0.00e+00 9.61e+01  -1.0 9.61e-03   4.0 1.00e+00 1.00e+00f  1
   2  6.9681490e+02 0.00e+00 8.55e+01  -1.0 2.60e-02   3.5 1.00e+00 1.00e+00f  1
   3  6.9194604e+02 0.00e+00 5.95e+01  -1.0 5.53e-02   3.0 1.00e+00 1.00e+00f  1
   4  5.7306203e+02 0.00e+00 8.19e+01  -1.0 1.41e+00   2.6 1.00e+00 1.00e+00f  1
   5  5.0658473e+02 0.00e+00 7.95e+01  -1.0 6.68e-01   2.1 1.00e+00 1.00e+00f  1
   6  4.7707655e+02 0.00e+00 9.83e+01  -1.0 2.99e-01   2.5 1.00e+00 1.00e+00f  1
   7  4.6801812e+02 0.00e+00 3.41e+01  -1.0 1.02e-01   2.9 1.00e+00 1.00e+00f  1
   8  4.6683142e+02 0.00e+00 3.87e+01  -1.0 1.52e-02   3.4 1.00e+00 1.00e+00f  1
   9  4.6293384e+02 0.00e+00 1.62e+02  -1.0 2.26e-01   2.9 1.00e+00 1.00e+00f  1
iter    objective    inf_pr   inf_du lg(mu)  ||d||  lg(rg) alpha_du alpha_pr  ls
  10  4.2534611e+02 0.00e+00 1.24e+01  -1.0 2.12e-01   3.3 1.00e+00 1.00e+00f  1
  11  4.2461305e+02 0.00e+00 2.15e+01  -1.0 2.99e-02   2.8 1.00e+00 1.00e+00f  1
  12  4.2397015e+02 0.00e+00 2.90e+01  -1.0 1.56e-02   3.3 1.00e+00 1.00e+00f  1
  13  3.8725956e+02 0.00e+00 8.55e+01  -1.0 5.31e-01   2.8 1.00e+00 1.00e+00f  1
  14  3.5916531e+02 0.00e+00 1.05e+02  -1.0 8.53e-01   2.3 1.00e+00 5.00e-01f  2
  15  3.5516608e+02 0.00e+00 8.62e+01  -1.0 2.18e-02   3.6 1.00e+00 1.00e+00f  1
  16  3.4597062e+02 0.00e+00 7.17e+01  -1.0 6.45e-02   3.2 1.00e+00 1.00e+00f  1
  17  3.3801789e+02 0.00e+00 3.23e+01  -1.0 1.27e-01    -  1.00e+00 1.00e+00f  1
  18  3.2889364e+02 0.00e+00 5.34e+01  -1.0 1.29e-01   2.7 1.00e+00 1.00e+00f  1
  19  3.2509540e+02 0.00e+00 1.12e+02  -1.0 4.84e-01   2.2 1.00e+00 2.50e-01f  3
iter    objective    inf_pr   inf_du lg(mu)  ||d||  lg(rg) alpha_du alpha_pr  ls
  20  3.2250691e+02 0.00e+00 6.38e+00  -1.0 3.87e-02    -  1.00e+00 1.00e+00f  1
  21  3.2233294e+02 0.00e+00 5.51e+00  -1.0 2.59e-02    -  1.00e+00 1.00e+00f  1
  22  3.2225449e+02 0.00e+00 4.88e+00  -1.0 1.00e-02   2.6 1.00e+00 1.00e+00f  1
  23  3.2219373e+02 0.00e+00 6.83e+00  -1.0 5.78e-03   3.1 1.00e+00 1.00e+00f  1
  24  3.1214852e+02 0.00e+00 1.30e+02  -1.0 1.44e-01   2.6 1.00e+00 1.00e+00f  1
  25  2.8931984e+02 0.00e+00 3.75e+01  -1.0 4.00e-01    -  1.00e+00 1.00e+00f  1
  26  2.8219019e+02 0.00e+00 5.53e+01  -1.0 8.51e-02   3.0 1.00e+00 1.00e+00f  1
  27  2.8000142e+02 0.00e+00 9.69e+01  -1.0 1.87e-01    -  1.00e+00 1.00e+00f  1
  28  2.7686226e+02 0.00e+00 1.96e+01  -1.0 4.48e-02   2.5 1.00e+00 1.00e+00f  1
  29  2.6806274e+02 0.00e+00 1.04e+02  -1.0 8.96e-02   3.0 1.00e+00 1.00e+00f  1
iter    objective    inf_pr   inf_du lg(mu)  ||d||  lg(rg) alpha_du alpha_pr  ls
  30  2.5482070e+02 0.00e+00 1.05e+02  -1.0 5.13e-01   2.5 1.00e+00 1.00e+00f  1
  31  2.5046914e+02 0.00e+00 1.54e+02  -1.0 2.45e-02   3.8 1.00e+00 1.00e+00f  1
  32  2.4832488e+02 0.00e+00 1.70e+02  -1.0 9.89e-03   4.2 1.00e+00 1.00e+00f  1
  33  2.3841786e+02 0.00e+00 2.07e+02  -1.0 4.02e-02   3.8 1.00e+00 1.00e+00f  1
  34  1.9069204e+02 0.00e+00 4.49e+01  -1.0 3.07e-01   3.3 1.00e+00 1.00e+00f  1
  35  1.8829968e+02 0.00e+00 4.53e+01  -1.0 1.11e-01    -  1.00e+00 1.00e+00f  1
  36  1.8774207e+02 0.00e+00 5.48e+00  -1.0 2.16e-02    -  1.00e+00 1.00e+00f  1
  37  1.8758530e+02 0.00e+00 8.76e+00  -1.0 1.26e-02   2.8 1.00e+00 1.00e+00f  1
  38  1.8743590e+02 0.00e+00 1.28e+01  -1.0 7.35e-03   3.2 1.00e+00 1.00e+00f  1
  39  1.8735180e+02 0.00e+00 1.48e+01  -1.0 3.23e-03   3.7 1.00e+00 1.00e+00f  1
iter    objective    inf_pr   inf_du lg(mu)  ||d||  lg(rg) alpha_du alpha_pr  ls
  40  1.8670772e+02 0.00e+00 2.55e+01  -1.0 1.66e-02   3.2 1.00e+00 1.00e+00f  1
  41  1.8621891e+02 0.00e+00 3.22e+01  -1.0 7.98e-03   3.6 1.00e+00 1.00e+00f  1
  42  1.7676120e+02 0.00e+00 1.01e+02  -1.0 7.25e-02   3.1 1.00e+00 1.00e+00f  1
  43  1.5755279e+02 0.00e+00 6.80e+01  -1.0 2.15e-01   2.7 1.00e+00 1.00e+00f  1
  44  1.4965392e+02 0.00e+00 5.60e+01  -1.0 7.47e-02   3.1 1.00e+00 1.00e+00f  1
  45  1.4134449e+02 0.00e+00 1.46e+02  -1.0 3.41e-01    -  1.00e+00 1.00e+00f  1
  46  1.2315496e+02 0.00e+00 9.47e+01  -1.0 8.35e-01    -  1.00e+00 1.00e+00f  1
  47  6.0059622e+01 0.00e+00 7.98e+01  -1.0 7.07e-01   2.6 1.00e+00 1.00e+00f  1
  48  2.5415732e+01 0.00e+00 7.18e+01  -1.0 6.11e-01   2.1 1.00e+00 1.00e+00f  1
  49  2.0290425e+01 0.00e+00 2.73e+01  -1.0 2.67e-01    -  1.00e+00 5.00e-01f  2
iter    objective    inf_pr   inf_du lg(mu)  ||d||  lg(rg) alpha_du alpha_pr  ls
  50  2.0000962e+01 0.00e+00 1.39e+00  -1.0 2.23e-02    -  1.00e+00 1.00e+00f  1
  51  2.0000000e+01 0.00e+00 2.47e-04  -1.0 1.30e-03    -  1.00e+00 1.00e+00f  1
  52  2.0000000e+01 0.00e+00 1.65e-15  -5.7 2.55e-07    -  1.00e+00 1.00e+00f  1

Number of Iterations....: 52

                                   (scaled)                 (unscaled)
Objective...............:   1.6399990968313695e+01    2.0000000000000000e+01
Dual infeasibility......:   1.6519485736660999e-15    2.0145725407505627e-15
Constraint violation....:   0.0000000000000000e+00    0.0000000000000000e+00
Complementarity.........:   0.0000000000000000e+00    0.0000000000000000e+00
Overall NLP error.......:   1.6519485736660999e-15    2.0145725407505627e-15


Number of objective function evaluations             = 69
Number of objective gradient evaluations             = 53
Number of equality constraint evaluations            = 0
Number of inequality constraint evaluations          = 0
Number of equality constraint Jacobian evaluations   = 0
Number of inequality constraint Jacobian evaluations = 0
Number of Lagrangian Hessian evaluations             = 52
Total CPU secs in IPOPT (w/o function evaluations)   =      0.007
Total CPU secs in NLP function evaluations           =      0.000

EXIT: Optimal Solution Found.

 ** SUBROUTINE CUTEST_csetup: Warning. The problem has no general constraints. 
 ** Other tools may be preferable ** 

************************ CUTEst statistics ************************


 Package used            :  IPOPT
 Problem                 :  HAIRY     
 # variables             =               2
 # constraints           =               0
 # objective functions   =        0.1230000E+03
 # objective gradients   =        0.5400000E+02
 # objective Hessians    =        0.5300000E+02
 # Hessian-vector prdct  =        0.0000000E+00
 # constraints functions =        0.0000000E+00
 # constraints gradients =        0.0000000E+00
 # constraints Hessians  =        0.0000000E+00
 Exit code               =               0
 Final f                 =   0.2000000E+02
 Set up time             =            0.00 seconds
 Solve time              =            0.06 seconds


******************************************************************

System Time =       0.0149999997 s.
